p wcnf 48 534 22
1 1 7 13 19 25 31 37 43 0
2 2 8 14 20 26 32 38 44 0
3 3 9 15 21 27 33 39 45 0
4 4 10 16 22 28 34 40 46 0
5 5 11 17 23 29 35 41 47 0
6 6 12 18 24 30 36 42 48 0
22 -1 -20 0
22 -1 -21 0
22 -1 -22 0
22 -1 -23 0
22 -1 -24 0
22 -2 -19 0
22 -2 -21 0
22 -2 -22 0
22 -2 -23 0
22 -2 -24 0
22 -3 -19 0
22 -3 -20 0
22 -3 -22 0
22 -3 -23 0
22 -3 -24 0
22 -4 -19 0
22 -4 -20 0
22 -4 -21 0
22 -4 -23 0
22 -4 -24 0
22 -5 -19 0
22 -5 -20 0
22 -5 -21 0
22 -5 -22 0
22 -5 -24 0
22 -6 -19 0
22 -6 -20 0
22 -6 -21 0
22 -6 -22 0
22 -6 -23 0
22 -1 -38 0
22 -1 -39 0
22 -1 -40 0
22 -1 -41 0
22 -1 -42 0
22 -2 -37 0
22 -2 -39 0
22 -2 -40 0
22 -2 -41 0
22 -2 -42 0
22 -3 -37 0
22 -3 -38 0
22 -3 -40 0
22 -3 -41 0
22 -3 -42 0
22 -4 -37 0
22 -4 -38 0
22 -4 -39 0
22 -4 -41 0
22 -4 -42 0
22 -5 -37 0
22 -5 -38 0
22 -5 -39 0
22 -5 -40 0
22 -5 -42 0
22 -6 -37 0
22 -6 -38 0
22 -6 -39 0
22 -6 -40 0
22 -6 -41 0
22 -7 -14 0
22 -7 -15 0
22 -7 -16 0
22 -7 -17 0
22 -7 -18 0
22 -8 -13 0
22 -8 -15 0
22 -8 -16 0
22 -8 -17 0
22 -8 -18 0
22 -9 -13 0
22 -9 -14 0
22 -9 -16 0
22 -9 -17 0
22 -9 -18 0
22 -10 -13 0
22 -10 -14 0
22 -10 -15 0
22 -10 -17 0
22 -10 -18 0
22 -11 -13 0
22 -11 -14 0
22 -11 -15 0
22 -11 -16 0
22 -11 -18 0
22 -12 -13 0
22 -12 -14 0
22 -12 -15 0
22 -12 -16 0
22 -12 -17 0
22 -7 -38 0
22 -7 -39 0
22 -7 -40 0
22 -7 -41 0
22 -7 -42 0
22 -8 -37 0
22 -8 -39 0
22 -8 -40 0
22 -8 -41 0
22 -8 -42 0
22 -9 -37 0
22 -9 -38 0
22 -9 -40 0
22 -9 -41 0
22 -9 -42 0
22 -10 -37 0
22 -10 -38 0
22 -10 -39 0
22 -10 -41 0
22 -10 -42 0
22 -11 -37 0
22 -11 -38 0
22 -11 -39 0
22 -11 -40 0
22 -11 -42 0
22 -12 -37 0
22 -12 -38 0
22 -12 -39 0
22 -12 -40 0
22 -12 -41 0
22 -7 -44 0
22 -7 -45 0
22 -7 -46 0
22 -7 -47 0
22 -7 -48 0
22 -8 -43 0
22 -8 -45 0
22 -8 -46 0
22 -8 -47 0
22 -8 -48 0
22 -9 -43 0
22 -9 -44 0
22 -9 -46 0
22 -9 -47 0
22 -9 -48 0
22 -10 -43 0
22 -10 -44 0
22 -10 -45 0
22 -10 -47 0
22 -10 -48 0
22 -11 -43 0
22 -11 -44 0
22 -11 -45 0
22 -11 -46 0
22 -11 -48 0
22 -12 -43 0
22 -12 -44 0
22 -12 -45 0
22 -12 -46 0
22 -12 -47 0
22 -13 -38 0
22 -13 -39 0
22 -13 -40 0
22 -13 -41 0
22 -13 -42 0
22 -14 -37 0
22 -14 -39 0
22 -14 -40 0
22 -14 -41 0
22 -14 -42 0
22 -15 -37 0
22 -15 -38 0
22 -15 -40 0
22 -15 -41 0
22 -15 -42 0
22 -16 -37 0
22 -16 -38 0
22 -16 -39 0
22 -16 -41 0
22 -16 -42 0
22 -17 -37 0
22 -17 -38 0
22 -17 -39 0
22 -17 -40 0
22 -17 -42 0
22 -18 -37 0
22 -18 -38 0
22 -18 -39 0
22 -18 -40 0
22 -18 -41 0
22 -19 -32 0
22 -19 -33 0
22 -19 -34 0
22 -19 -35 0
22 -19 -36 0
22 -20 -31 0
22 -20 -33 0
22 -20 -34 0
22 -20 -35 0
22 -20 -36 0
22 -21 -31 0
22 -21 -32 0
22 -21 -34 0
22 -21 -35 0
22 -21 -36 0
22 -22 -31 0
22 -22 -32 0
22 -22 -33 0
22 -22 -35 0
22 -22 -36 0
22 -23 -31 0
22 -23 -32 0
22 -23 -33 0
22 -23 -34 0
22 -23 -36 0
22 -24 -31 0
22 -24 -32 0
22 -24 -33 0
22 -24 -34 0
22 -24 -35 0
22 -25 -38 0
22 -25 -39 0
22 -25 -40 0
22 -25 -41 0
22 -25 -42 0
22 -26 -37 0
22 -26 -39 0
22 -26 -40 0
22 -26 -41 0
22 -26 -42 0
22 -27 -37 0
22 -27 -38 0
22 -27 -40 0
22 -27 -41 0
22 -27 -42 0
22 -28 -37 0
22 -28 -38 0
22 -28 -39 0
22 -28 -41 0
22 -28 -42 0
22 -29 -37 0
22 -29 -38 0
22 -29 -39 0
22 -29 -40 0
22 -29 -42 0
22 -30 -37 0
22 -30 -38 0
22 -30 -39 0
22 -30 -40 0
22 -30 -41 0
22 -1 -7 0
22 -1 -13 0
22 -1 -19 0
22 -1 -25 0
22 -1 -31 0
22 -1 -37 0
22 -1 -43 0
22 -2 -8 0
22 -2 -14 0
22 -2 -20 0
22 -2 -26 0
22 -2 -32 0
22 -2 -38 0
22 -2 -44 0
22 -3 -9 0
22 -3 -15 0
22 -3 -21 0
22 -3 -27 0
22 -3 -33 0
22 -3 -39 0
22 -3 -45 0
22 -4 -10 0
22 -4 -16 0
22 -4 -22 0
22 -4 -28 0
22 -4 -34 0
22 -4 -40 0
22 -4 -46 0
22 -5 -11 0
22 -5 -17 0
22 -5 -23 0
22 -5 -29 0
22 -5 -35 0
22 -5 -41 0
22 -5 -47 0
22 -6 -12 0
22 -6 -18 0
22 -6 -24 0
22 -6 -30 0
22 -6 -36 0
22 -6 -42 0
22 -6 -48 0
22 -7 -13 0
22 -7 -19 0
22 -7 -25 0
22 -7 -31 0
22 -7 -37 0
22 -7 -43 0
22 -8 -14 0
22 -8 -20 0
22 -8 -26 0
22 -8 -32 0
22 -8 -38 0
22 -8 -44 0
22 -9 -15 0
22 -9 -21 0
22 -9 -27 0
22 -9 -33 0
22 -9 -39 0
22 -9 -45 0
22 -10 -16 0
22 -10 -22 0
22 -10 -28 0
22 -10 -34 0
22 -10 -40 0
22 -10 -46 0
22 -11 -17 0
22 -11 -23 0
22 -11 -29 0
22 -11 -35 0
22 -11 -41 0
22 -11 -47 0
22 -12 -18 0
22 -12 -24 0
22 -12 -30 0
22 -12 -36 0
22 -12 -42 0
22 -12 -48 0
22 -13 -19 0
22 -13 -25 0
22 -13 -31 0
22 -13 -37 0
22 -13 -43 0
22 -14 -20 0
22 -14 -26 0
22 -14 -32 0
22 -14 -38 0
22 -14 -44 0
22 -15 -21 0
22 -15 -27 0
22 -15 -33 0
22 -15 -39 0
22 -15 -45 0
22 -16 -22 0
22 -16 -28 0
22 -16 -34 0
22 -16 -40 0
22 -16 -46 0
22 -17 -23 0
22 -17 -29 0
22 -17 -35 0
22 -17 -41 0
22 -17 -47 0
22 -18 -24 0
22 -18 -30 0
22 -18 -36 0
22 -18 -42 0
22 -18 -48 0
22 -19 -25 0
22 -19 -31 0
22 -19 -37 0
22 -19 -43 0
22 -20 -26 0
22 -20 -32 0
22 -20 -38 0
22 -20 -44 0
22 -21 -27 0
22 -21 -33 0
22 -21 -39 0
22 -21 -45 0
22 -22 -28 0
22 -22 -34 0
22 -22 -40 0
22 -22 -46 0
22 -23 -29 0
22 -23 -35 0
22 -23 -41 0
22 -23 -47 0
22 -24 -30 0
22 -24 -36 0
22 -24 -42 0
22 -24 -48 0
22 -25 -31 0
22 -25 -37 0
22 -25 -43 0
22 -26 -32 0
22 -26 -38 0
22 -26 -44 0
22 -27 -33 0
22 -27 -39 0
22 -27 -45 0
22 -28 -34 0
22 -28 -40 0
22 -28 -46 0
22 -29 -35 0
22 -29 -41 0
22 -29 -47 0
22 -30 -36 0
22 -30 -42 0
22 -30 -48 0
22 -31 -37 0
22 -31 -43 0
22 -32 -38 0
22 -32 -44 0
22 -33 -39 0
22 -33 -45 0
22 -34 -40 0
22 -34 -46 0
22 -35 -41 0
22 -35 -47 0
22 -36 -42 0
22 -36 -48 0
22 -37 -43 0
22 -38 -44 0
22 -39 -45 0
22 -40 -46 0
22 -41 -47 0
22 -42 -48 0
22 -1 -2 0
22 -1 -3 0
22 -1 -4 0
22 -1 -5 0
22 -1 -6 0
22 -2 -3 0
22 -2 -4 0
22 -2 -5 0
22 -2 -6 0
22 -3 -4 0
22 -3 -5 0
22 -3 -6 0
22 -4 -5 0
22 -4 -6 0
22 -5 -6 0
22 -7 -8 0
22 -7 -9 0
22 -7 -10 0
22 -7 -11 0
22 -7 -12 0
22 -8 -9 0
22 -8 -10 0
22 -8 -11 0
22 -8 -12 0
22 -9 -10 0
22 -9 -11 0
22 -9 -12 0
22 -10 -11 0
22 -10 -12 0
22 -11 -12 0
22 -13 -14 0
22 -13 -15 0
22 -13 -16 0
22 -13 -17 0
22 -13 -18 0
22 -14 -15 0
22 -14 -16 0
22 -14 -17 0
22 -14 -18 0
22 -15 -16 0
22 -15 -17 0
22 -15 -18 0
22 -16 -17 0
22 -16 -18 0
22 -17 -18 0
22 -19 -20 0
22 -19 -21 0
22 -19 -22 0
22 -19 -23 0
22 -19 -24 0
22 -20 -21 0
22 -20 -22 0
22 -20 -23 0
22 -20 -24 0
22 -21 -22 0
22 -21 -23 0
22 -21 -24 0
22 -22 -23 0
22 -22 -24 0
22 -23 -24 0
22 -25 -26 0
22 -25 -27 0
22 -25 -28 0
22 -25 -29 0
22 -25 -30 0
22 -26 -27 0
22 -26 -28 0
22 -26 -29 0
22 -26 -30 0
22 -27 -28 0
22 -27 -29 0
22 -27 -30 0
22 -28 -29 0
22 -28 -30 0
22 -29 -30 0
22 -31 -32 0
22 -31 -33 0
22 -31 -34 0
22 -31 -35 0
22 -31 -36 0
22 -32 -33 0
22 -32 -34 0
22 -32 -35 0
22 -32 -36 0
22 -33 -34 0
22 -33 -35 0
22 -33 -36 0
22 -34 -35 0
22 -34 -36 0
22 -35 -36 0
22 -37 -38 0
22 -37 -39 0
22 -37 -40 0
22 -37 -41 0
22 -37 -42 0
22 -38 -39 0
22 -38 -40 0
22 -38 -41 0
22 -38 -42 0
22 -39 -40 0
22 -39 -41 0
22 -39 -42 0
22 -40 -41 0
22 -40 -42 0
22 -41 -42 0
22 -43 -44 0
22 -43 -45 0
22 -43 -46 0
22 -43 -47 0
22 -43 -48 0
22 -44 -45 0
22 -44 -46 0
22 -44 -47 0
22 -44 -48 0
22 -45 -46 0
22 -45 -47 0
22 -45 -48 0
22 -46 -47 0
22 -46 -48 0
22 -47 -48 0
